20191102 93400.00 82500.00
20191101 93398.67 82486.39
20171231 93500.00 74900.00
20171106 93544.47 75094.13
20161104 93866.67 62595.76
20160623 81546.83 62595.76
20151231 81858.83 62277.14
20150715 81858.83 62288.56
